WARNING: for repeatability, setting FPU to use double precision
============================[ Problem Statistics ]=============================
|                                                                             |
|  Number of variables:           689                                         |
|  Number of clauses:            3525                                         |
|  Parse time:                   0.00 s                                       |
|                                                                             |
============================[ Search Statistics ]==============================
| Conflicts |          ORIGINAL         |          LEARNT          | Progress |
|           |    Vars  Clauses Literals |    Limit  Clauses Lit/Cl |          |
===============================================================================
===============================================================================
restarts              : 1
conflicts             : 47             (inf /sec)
decisions             : 914            (0.00 % random) (inf /sec)
propagations          : 2835           (inf /sec)
conflict literals     : 204            (19.69 % deleted)
Memory used           : 5.00 MB
CPU time              : 0 s

UNSATISFIABLE
